n_res = 3;
rcap = [33, 96, 104];
rtype = [1, 2, 2];
n_tasks = 16;
modes = [ {1, 2, 3}, {4, 5, 6}, {7, 8, 9}, {10, 11, 12}, {13, 14, 15}, {16, 17, 18}, {19, 20, 21}, {22, 23, 24}, {25, 26, 27}, {28, 29, 30}, {31, 32, 33}, {34, 35, 36}, {37, 38, 39}, {40, 41, 42}, {43, 44, 45}, {46, 47, 48} ];
succ = [ {4, 5, 6}, {8, 11}, {9, 13}, {8, 9, 10}, {7, 14, 15}, {9, 14}, {12}, {12, 13, 14}, {15, 16}, {11, 12}, {13}, {16}, {15, 16}, {}, {}, {} ];
n_opt = 48;
dur = [3, 7, 9, 5, 7, 8, 3, 7, 10, 6, 8, 9, 1, 2, 7, 6, 9, 10, 6, 7, 9, 3, 4, 9, 1, 2, 3, 4, 7, 7, 2, 4, 6, 3, 4, 7, 2, 6, 9, 1, 7, 8, 2, 3, 7, 1, 5, 5];
rreq = [|  8,  4,  2,  5,  3,  3,  2,  2,  1,  3,  2,  2,  7,  5,  5,  4,  4,  1,  9,  9,  8,  9,  9,  7,  9,  4,  2,  6,  5,  6,  9,  7,  5,  6,  5,  5,  8,  8,  5,  3,  3,  2,  5,  5,  4,  8,  7,  8
        |  7,  5,  2,  3,  3,  3,  4,  2,  1,  4,  4,  4,  6,  5,  4,  8,  4,  3, 10,  9,  9,  9,  7,  6,  8,  8,  7,  5,  5,  5,  7,  6,  3,  7,  6,  5,  5,  3,  1,  5,  5,  4,  7,  5,  5,  9,  9,  8
        |  6,  4,  3,  9,  7,  5,  8,  8,  7,  8,  5,  4,  6,  5,  5,  6,  4,  3,  6,  5,  4, 10, 10, 10,  8,  5,  4,  9,  7,  6,  8,  7,  7,  2,  1,  1,  9,  8,  7,  7,  6,  6,  4,  4,  3,  6,  3,  3 |];
